Route #1: 75 68 6 33 1 63 16 3 51 17 26 67
Route #2: 7 35 8 46 34 52 27 29 48 47 36 21
Route #3: 74 28 61 69 71 60 70 20 37 5 15 57 13 54 19
Route #4: 53 14 59 11 66 65 38 58
Route #5: 72 10 31 25 55 18 50 32 9 39 40
Route #6: 12 44 24 49 23 56 41 43 42 64 22 62 73
Route #7: 2 30 45 4
Cost 758